p edge 160 1227
c 6252
e 0 111 1 0
e 0 120 4 2
e 0 65 1 3
e 0 23 2 4
e 0 21 1 5
e 0 63 1 9
e 0 78 1 10
e 0 139 1 11
e 1 37 1 12
e 1 116 1 13
e 1 32 1 14
e 1 123 1 15
e 1 33 1 16
e 1 50 1 17
e 1 41 1 19
e 1 13 1 20
e 1 36 26 21
e 1 74 1 22
e 1 79 1 23
e 1 89 1 24
e 1 94 1 25
e 1 156 1 26
e 2 44 1 27
e 2 126 1 28
e 2 58 2 29
e 2 7 1 30
e 2 98 1 31
e 2 24 1 32
e 2 139 1 34
e 2 4 1 35
e 2 8 1 36
e 2 17 1 37
e 2 28 41 38
e 2 46 1 39
e 2 62 1 40
e 2 84 1 41
e 2 87 1 42
e 2 97 1 43
e 2 104 1 44
e 2 125 1 45
e 2 130 1 46
e 2 149 1 47
e 3 76 2 50
e 3 158 1 54
e 3 71 1 59
e 3 94 2 61
e 3 97 1 62
e 3 101 1 63
e 3 104 1 64
e 4 6 1 66
e 4 9 1 68
e 4 104 2 71
e 4 39 1 75
e 4 77 2 77
e 4 88 13 78
e 4 137 1 79
e 4 153 25 81
e 5 43 1 82
e 5 34 1 83
e 5 67 1 85
e 5 60 1 86
e 5 142 1 88
e 5 48 1 89
e 5 9 1 90
e 5 17 1 91
e 5 35 45 92
e 5 49 1 93
e 5 53 1 94
e 5 62 2 95
e 5 104 2 96
e 5 110 1 97
e 5 157 1 98
e 6 34 1 99
e 6 81 1 100
e 6 139 1 101
e 6 39 1 102
e 6 20 3 103
e 6 64 43 104
e 6 8 1 105
e 6 155 1 106
e 6 9 1 107
e 6 21 1 108
e 6 25 38 109
e 6 32 1 110
e 6 70 1 111
e 6 72 1 112
e 6 87 1 113
e 6 89 1 114
e 6 91 26 115
e 6 135 1 117
e 7 26 1 118
e 7 57 1 119
e 7 48 1 120
e 7 148 1 121
e 7 60 2 122
e 7 89 1 123
e 7 87 1 124
e 7 154 1 125
e 7 18 1 126
e 7 64 34 127
e 7 99 39 128
e 7 105 1 129
e 7 125 1 130
e 7 129 1 131
e 7 157 1 133
e 8 10 1 134
e 8 85 1 135
e 8 107 2 136
e 8 156 1 137
e 8 121 2 139
e 8 117 1 140
e 8 61 12 141
e 8 139 1 142
e 8 155 1 143
e 9 29 1 144
e 9 98 1 145
e 9 28 36 146
e 9 155 1 148
e 9 79 1 149
e 9 45 1 150
e 9 47 1 151
e 9 55 1 152
e 9 60 2 153
e 9 65 2 154
e 9 73 1 155
e 9 107 1 156
e 9 111 1 157
e 9 140 1 158
e 9 141 1 159
e 10 101 1 160
e 10 29 1 161
e 10 33 1 162
e 10 97 1 163
e 10 35 18 164
e 10 134 15 165
e 10 116 1 166
e 10 145 1 167
e 10 28 45 169
e 10 71 1 170
e 10 78 1 171
e 10 107 1 172
e 11 98 1 173
e 11 64 32 175
e 11 88 48 179
e 11 47 2 181
e 12 149 1 184
e 12 116 1 185
e 12 41 1 186
e 12 82 1 187
e 12 62 1 188
e 12 144 1 189
e 12 68 1 190
e 12 36 11 191
e 12 84 1 193
e 12 110 1 194
e 12 118 1 195
e 12 154 1 196
e 13 63 1 197
e 13 101 1 198
e 13 25 18 201
e 13 28 9 202
e 13 51 1 205
e 13 105 1 209
e 13 136 1 210
e 13 149 2 212
e 14 57 1 213
e 14 22 39 214
e 14 26 1 215
e 14 154 1 216
e 14 71 1 217
e 14 31 32 218
e 14 39 1 219
e 14 146 1 220
e 14 40 3 221
e 14 44 1 222
e 14 63 1 223
e 14 78 1 224
e 14 85 1 225
e 14 122 1 226
e 14 140 1 228
e 14 149 1 229
e 15 101 1 231
e 15 112 1 232
e 15 79 1 233
e 15 61 46 236
e 15 88 42 237
e 16 149 1 242
e 16 63 1 246
e 16 138 1 248
e 16 28 3 250
e 16 51 1 252
e 16 69 1 254
e 16 95 1 256
e 17 63 1 259
e 17 45 1 260
e 17 57 1 261
e 17 91 49 262
e 17 52 1 266
e 17 54 1 267
e 17 106 1 268
e 17 124 1 269
e 17 137 1 270
e 17 145 1 271
e 18 21 1 272
e 18 28 37 273
e 18 69 1 274
e 18 133 1 275
e 18 104 1 276
e 18 146 1 277
e 18 132 1 278
e 18 85 1 279
e 18 110 1 280
e 18 140 1 282
e 19 105 1 283
e 19 79 1 285
e 19 25 16 287
e 19 51 1 289
e 19 67 1 292
e 19 85 1 293
e 19 94 1 294
e 19 106 1 295
e 19 153 36 297
e 20 35 11 300
e 20 94 20 302
e 20 116 10 309
e 20 127 7 310
e 21 102 1 312
e 21 60 1 313
e 21 44 1 314
e 21 28 40 315
e 21 147 1 316
e 21 47 1 317
e 21 100 1 318
e 21 38 1 319
e 21 43 1 320
e 21 61 19 321
e 21 94 1 322
e 21 111 1 323
e 22 31 22 325
e 22 111 12 326
e 22 84 8 328
e 22 140 21 329
e 22 93 26 330
e 22 105 2 331
e 22 34 21 332
e 22 63 31 333
e 22 71 22 334
e 22 88 30 335
e 22 112 8 336
e 22 113 42 337
e 23 77 24 339
e 23 151 26 340
e 23 93 35 342
e 23 95 7 343
e 23 81 18 344
e 23 123 18 345
e 23 82 7 346
e 23 101 24 347
e 23 134 16 348
e 24 135 1 350
e 24 116 1 351
e 24 39 1 352
e 24 148 1 353
e 24 112 1 354
e 24 127 1 356
e 24 53 1 358
e 24 65 2 360
e 24 76 1 361
e 24 149 2 365
e 25 41 20 366
e 25 60 14 367
e 25 126 38 368
e 25 91 21 370
e 25 53 31 371
e 25 121 9 372
e 25 70 24 373
e 25 101 6 374
e 25 139 24 376
e 25 152 4 377
e 26 47 2 379
e 26 144 2 382
e 26 52 2 386
e 26 97 1 388
e 27 55 1 391
e 27 156 2 393
e 27 105 1 394
e 27 98 3 397
e 27 111 2 398
e 27 139 2 402
e 27 146 2 403
e 28 56 32 404
e 28 131 35 405
e 28 127 34 406
e 28 85 24 407
e 28 90 15 408
e 28 69 4 409
e 28 80 16 410
e 28 97 46 411
e 28 103 34 412
e 28 147 37 415
e 29 97 1 417
e 29 76 1 418
e 29 112 1 420
e 29 159 1 423
e 30 55 2 424
e 30 151 19 426
e 30 39 1 429
e 30 47 1 432
e 30 139 3 437
e 31 38 49 438
e 31 94 36 439
e 31 103 11 440
e 31 55 13 441
e 31 78 11 443
e 31 91 41 444
e 31 32 2 445
e 31 48 47 446
e 31 54 37 447
e 31 70 15 449
e 31 81 42 450
e 31 93 17 451
e 31 108 31 452
e 31 126 42 453
e 31 147 11 454
e 32 146 1 456
e 32 108 1 458
e 32 95 1 459
e 32 61 15 463
e 32 80 1 464
e 32 101 1 465
e 32 116 1 466
e 33 75 1 469
e 33 105 1 471
e 33 69 1 474
e 33 106 1 476
e 33 138 2 478
e 33 156 1 481
e 34 97 1 482
e 34 76 1 484
e 34 138 1 485
e 34 64 30 487
e 34 120 41 489
e 35 155 45 490
e 35 106 10 491
e 35 101 30 492
e 35 114 15 493
e 35 150 17 494
e 35 97 45 495
e 35 39 12 497
e 35 73 8 498
e 35 77 16 499
e 35 126 48 501
e 35 140 13 502
e 36 130 23 506
e 36 150 7 507
e 36 37 13 509
e 36 46 7 510
e 36 81 8 511
e 36 82 16 512
e 36 154 12 514
e 37 97 1 516
e 37 53 1 517
e 37 158 1 519
e 37 112 1 522
e 37 146 1 524
e 38 91 1 525
e 38 134 26 527
e 38 67 1 532
e 38 94 1 535
e 38 98 1 536
e 38 120 7 537
e 38 137 2 538
e 38 139 1 539
e 39 127 1 540
e 39 49 1 541
e 39 86 1 542
e 39 102 1 543
e 39 76 1 544
e 39 40 1 545
e 39 74 1 546
e 39 83 1 547
e 39 105 1 548
e 39 131 29 549
e 39 135 1 550
e 40 84 2 551
e 40 137 2 553
e 40 146 1 554
e 40 51 2 557
e 40 58 11 558
e 40 67 2 559
e 41 84 1 562
e 41 137 1 563
e 41 120 18 565
e 41 58 31 566
e 41 136 1 571
e 42 68 2 572
e 42 150 2 574
e 42 126 1 575
e 42 120 49 576
e 42 45 1 577
e 42 133 1 578
e 42 105 2 579
e 42 108 2 580
e 42 137 1 581
e 43 84 1 585
e 43 148 1 586
e 43 45 1 588
e 43 52 2 589
e 43 58 36 590
e 43 75 2 594
e 43 98 2 595
e 44 52 2 596
e 44 80 1 598
e 44 65 1 600
e 44 108 1 603
e 44 127 1 604
e 45 48 2 608
e 45 110 1 609
e 45 100 1 610
e 45 149 1 611
e 45 108 1 612
e 45 128 1 613
e 45 46 2 614
e 45 61 43 615
e 45 62 1 616
e 45 66 1 617
e 45 77 30 618
e 45 78 1 619
e 45 121 2 621
e 45 124 1 622
e 45 131 37 623
e 45 142 1 624
e 46 55 1 625
e 46 146 1 626
e 46 51 1 631
e 46 145 1 637
e 47 148 1 639
e 47 114 1 641
e 47 157 1 642
e 47 130 2 643
e 47 54 2 644
e 47 74 2 645
e 47 75 2 646
e 47 126 1 647
e 47 145 1 648
e 47 147 1 649
e 47 159 2 650
e 48 65 1 653
e 48 108 1 656
e 48 137 1 657
e 48 146 1 659
e 48 156 1 660
e 49 67 1 661
e 49 139 1 662
e 49 131 29 664
e 49 58 9 666
e 49 61 48 667
e 49 88 26 668
e 50 84 1 670
e 50 80 1 671
e 50 58 26 676
e 50 112 2 677
e 50 144 1 679
e 50 145 2 680
e 51 119 2 681
e 51 138 1 682
e 51 97 1 683
e 51 56 1 684
e 51 66 1 685
e 51 113 2 686
e 51 114 2 687
e 51 115 2 688
e 52 146 1 689
e 52 142 1 691
e 52 116 1 692
e 52 70 1 693
e 52 80 2 694
e 52 89 1 695
e 52 109 2 696
e 52 111 3 697
e 52 114 2 698
e 52 145 1 699
e 52 150 2 700
e 52 158 1 701
e 53 132 2 702
e 53 114 1 703
e 53 55 1 704
e 53 72 1 705
e 53 147 1 706
e 53 133 1 707
e 53 66 1 708
e 53 67 1 709
e 53 107 2 710
e 53 119 1 711
e 53 130 1 712
e 54 156 1 717
e 54 120 46 718
e 54 91 33 722
e 54 98 1 723
e 55 119 1 725
e 55 133 1 726
e 55 87 1 727
e 55 131 23 728
e 55 116 1 729
e 55 76 1 730
e 55 95 1 731
e 55 82 1 732
e 55 127 1 733
e 55 129 1 734
e 55 132 2 735
e 55 154 1 736
e 56 79 1 737
e 56 135 1 739
e 56 99 42 740
e 56 138 1 741
e 56 108 1 742
e 56 69 1 743
e 57 61 24 748
e 57 151 23 750
e 57 105 1 751
e 57 112 1 753
e 57 63 1 754
e 57 77 38 755
e 57 111 1 757
e 57 148 1 758
e 58 118 28 760
e 58 77 31 761
e 58 135 11 762
e 58 115 47 763
e 58 99 35 764
e 58 100 14 765
e 59 135 2 767
e 59 138 1 770
e 59 85 2 773
e 59 159 1 777
e 60 101 1 778
e 60 111 1 779
e 60 79 1 782
e 60 94 2 785
e 60 144 2 786
e 61 132 1 787
e 61 119 49 788
e 61 70 21 789
e 61 81 10 790
e 61 98 16 791
e 61 106 23 792
e 61 142 12 796
e 61 152 27 798
e 62 99 40 799
e 63 96 1 803
e 63 84 1 804
e 63 70 1 805
e 63 72 1 807
e 63 79 1 808
e 63 106 1 809
e 63 124 1 810
e 63 151 6 811
e 64 142 15 813
e 64 114 33 814
e 64 103 18 816
e 64 73 34 817
e 64 68 3 818
e 64 91 4 819
e 64 97 17 820
e 64 112 13 821
e 64 115 17 822
e 64 123 33 823
e 65 98 2 824
e 65 129 1 825
e 65 113 1 826
e 65 135 1 827
e 65 93 2 828
e 65 92 1 829
e 65 102 1 830
e 65 115 2 831
e 65 141 2 832
e 65 155 1 834
e 66 156 1 835
e 66 108 1 838
e 67 134 35 843
e 67 153 25 844
e 67 83 2 845
e 67 71 1 846
e 67 73 1 847
e 67 81 1 848
e 67 90 1 849
e 67 148 1 850
e 67 156 1 851
e 68 136 1 853
e 68 101 1 854
e 68 134 23 858
e 68 145 1 859
e 69 71 1 860
e 69 146 1 861
e 69 106 1 862
e 69 87 1 863
e 69 85 1 865
e 69 109 1 866
e 70 135 1 868
e 70 120 47 870
e 70 94 1 871
e 70 99 43 872
e 70 146 1 873
e 70 153 41 875
e 71 133 1 876
e 71 145 1 878
e 71 110 1 879
e 71 82 1 880
e 71 91 28 881
e 71 127 1 882
e 71 128 1 883
e 71 132 1 884
e 71 137 2 885
e 72 120 5 886
e 72 80 1 888
e 72 108 1 889
e 72 149 1 895
e 73 79 1 896
e 73 95 1 898
e 73 153 23 899
e 73 156 1 901
e 74 144 2 905
e 75 119 1 906
e 75 133 1 907
e 75 155 1 908
e 75 96 2 909
e 75 157 1 910
e 75 94 1 911
e 75 91 2 912
e 75 92 1 913
e 75 104 1 914
e 76 123 1 915
e 76 98 1 916
e 76 131 38 917
e 76 99 7 918
e 76 110 1 919
e 76 105 1 920
e 76 81 1 921
e 76 86 1 922
e 77 156 24 924
e 77 78 10 925
e 77 114 2 927
e 77 135 3 928
e 78 141 1 929
e 78 152 1 930
e 78 150 1 931
e 78 100 1 932
e 78 96 1 933
e 79 143 1 935
e 79 80 1 936
e 79 106 1 937
e 79 148 1 938
e 79 88 43 939
e 79 99 15 940
e 79 100 1 941
e 79 126 1 942
e 80 119 1 943
e 80 104 1 944
e 80 126 1 945
e 80 92 1 946
e 80 110 1 947
e 80 128 1 948
e 80 132 2 949
e 80 135 1 950
e 81 88 49 952
e 81 144 1 955
e 82 149 1 956
e 82 151 6 957
e 82 138 1 962
e 83 95 1 966
e 83 99 5 967
e 84 127 1 969
e 84 118 1 970
e 84 150 1 971
e 84 142 1 972
e 84 87 1 973
e 84 104 2 974
e 84 132 2 976
e 84 149 1 977
e 85 154 1 978
e 85 136 1 979
e 85 124 1 980
e 85 88 23 981
e 85 118 1 983
e 85 143 1 984
e 86 146 1 987
e 86 104 1 989
e 88 91 44 994
e 88 143 5 995
e 88 124 27 996
e 90 95 3 1002
e 91 102 17 1006
e 91 95 9 1007
e 91 126 29 1008
e 91 136 38 1009
e 91 143 37 1010
e 91 147 44 1011
e 91 157 19 1012
e 92 94 1 1016
e 92 116 1 1018
e 93 131 12 1022
e 94 97 1 1024
e 94 122 1 1025
e 94 134 9 1026
e 94 158 1 1027
e 95 129 1 1028
e 95 107 1 1029
e 95 114 1 1030
e 95 123 1 1031
e 95 134 27 1032
e 95 146 1 1033
e 96 151 41 1038
e 96 136 3 1041
e 96 139 1 1042
e 97 109 1 1043
e 97 143 1 1044
e 97 103 1 1045
e 97 148 1 1046
e 97 158 3 1047
e 98 112 1 1048
e 98 136 1 1049
e 98 123 1 1050
e 98 151 6 1051
e 98 109 1 1052
e 98 155 1 1054
e 99 145 25 1055
e 99 124 22 1056
e 99 112 7 1058
e 99 114 26 1059
e 99 148 10 1060
e 100 138 2 1062
e 100 120 43 1065
e 101 144 1 1068
e 101 157 1 1069
e 102 145 1 1070
e 102 137 1 1071
e 102 153 49 1072
e 102 120 27 1073
e 103 153 9 1074
e 103 106 1 1075
e 103 131 34 1078
e 104 125 2 1079
e 104 105 1 1080
e 105 138 2 1081
e 106 133 1 1082
e 106 123 1 1083
e 106 131 8 1085
e 106 129 1 1086
e 107 120 11 1088
e 107 138 1 1089
e 107 159 1 1090
e 108 156 1 1091
e 108 125 1 1092
e 108 109 1 1093
e 109 159 1 1096
e 110 145 1 1097
e 110 112 1 1099
e 111 140 1 1102
e 111 143 1 1103
e 111 149 1 1104
e 112 124 1 1105
e 112 140 1 1106
e 112 113 1 1107
e 112 117 1 1108
e 112 150 1 1110
e 112 158 1 1111
e 113 153 13 1114
e 113 151 7 1116
e 114 131 44 1119
e 114 144 1 1121
e 116 151 9 1127
e 116 132 2 1128
e 116 117 1 1130
e 116 122 1 1131
e 116 134 37 1132
e 116 157 1 1134
e 116 158 1 1135
e 117 156 1 1142
e 118 131 18 1143
e 118 127 1 1144
e 119 146 1 1151
e 119 151 22 1153
e 120 154 3 1154
e 120 157 15 1155
e 121 144 1 1156
e 122 127 1 1165
e 122 151 11 1167
e 123 127 1 1168
e 123 145 1 1169
e 123 138 1 1170
e 123 144 3 1171
e 123 135 1 1173
e 123 159 1 1174
e 124 138 2 1176
e 124 135 1 1177
e 125 136 1 1178
e 125 158 1 1181
e 126 127 1 1182
e 127 150 1 1183
e 127 130 2 1184
e 127 156 1 1185
e 129 144 1 1188
e 129 148 1 1189
e 130 148 2 1191
e 130 158 2 1192
e 131 136 1 1193
e 131 143 2 1194
e 131 152 6 1195
e 132 135 1 1196
e 132 145 1 1197
e 132 158 1 1198
e 133 138 2 1199
e 134 136 42 1200
e 134 155 33 1201
e 134 158 8 1202
e 136 153 26 1203
e 136 142 1 1204
e 137 156 1 1205
e 138 144 1 1206
e 138 156 2 1207
e 138 155 1 1208
e 138 157 2 1209
e 140 151 30 1210
e 144 146 1 1216
e 144 152 1 1217
e 145 154 1 1218
e 146 153 47 1219
e 147 158 1 1220
e 149 158 1 1222
e 151 153 27 1223
e 153 155 47 1226
